(set-info :smt-lib-version 2.6)
(set-logic QF_SLIA)
(set-info :source |
Generated by: Andrew Reynolds
Generated on: 2018-04-25
Generator: Kudzu, converted to v2.6 by CVC4
Application: Symbolic Execution of Javascript
Target solver: Kaluza
Publications: "A symbolic execution framework for JavaScript" by P. Saxena, D. Akhawe, S. Hanna, F. Mao, S. McCamant, and D. Song, 2010.
|)
(set-info :license "https://creativecommons.org/licenses/by/4.0/")
(set-info :category "industrial")
(set-info :status unknown)



(declare-fun PCTEMP_LHS_1 () Int)
(declare-fun T0_2 () String)
(declare-fun T1_2 () String)
(declare-fun T2_2 () String)
(declare-fun T3_2 () String)
(declare-fun T_2 () Bool)
(declare-fun T_SELECT_1 () Bool)
(declare-fun var_0xINPUT_2 () String)
(assert (= T_SELECT_1 (not (= PCTEMP_LHS_1 (- 1)))))
(assert (ite T_SELECT_1 (and (= var_0xINPUT_2 (str.++ T0_2 T1_2)) (not (str.in_re T0_2 (re.union (str.to_re """") (str.to_re "'")))) (= T1_2 (str.++ T2_2 T3_2)) (= PCTEMP_LHS_1 (str.len T0_2)) (str.in_re T2_2 (re.union (str.to_re """") (str.to_re "'")))) (and (= PCTEMP_LHS_1 (- 1)) (not (str.in_re var_0xINPUT_2 (re.union (str.to_re """") (str.to_re "'")))))))
(assert (= T_2 (= PCTEMP_LHS_1 6)))
(assert T_2)
(check-sat)

